Route #1: 4 45 12 50 17 49 15 19 34 32 38 48 2
Route #2: 9 16 13 46 26 22
Route #3: 23 39 14 21 11 28 24 31 3
Route #4: 47 10 44 6 36 25 41
Route #5: 1 30 18 20 42 40
Route #6: 37 29 27 8 5 51
Route #7: 35 33 7 43
Cost 756